NAME : grossezf\1c2b3c4c.knd
COMMENT : 
TYPE : CVRP
DIMENSION : 201
EDGE_WEIGHT_TYPE : EUC_2D
CAPACITY : 10100
CAPACITY_VOL : 50
NODE_COORD_TYPE : TWOD_COORDS
NODE_COORD_SECTION
1 23452 56766
2 24992 56900
3 24389 55556
4 24389 55556
5 23935 55312
6 24389 55556
7 23586 58296
8 24976 56868
9 23597 55243
10 24146 55425
11 24680 57629
12 23906 55319
13 24438 55643
14 23995 55358
15 23904 55332
16 23857 55331
17 24111 55424
18 24660 57601
19 24065 55400
20 23181 55307
21 24119 55455
22 24718 56069
23 24001 55412
24 23803 55351
25 24240 55567
26 23877 55397
27 23788 55377
28 23298 55358
29 23761 55383
30 23894 55407
31 24071 55468
32 24661 57475
33 23001 55426
34 23226 55381
35 24781 56321
36 24792 56341
37 24825 56500
38 24812 57126
39 24802 56449
40 24802 56449
41 24665 56133
42 23984 55481
43 23984 55481
44 23802 55435
45 23036 55461
46 23151 55438
47 23452 55413
48 24246 55688
49 23019 55479
50 23769 55444
51 23019 55479
52 23987 55515
53 23019 55479
54 24572 57504
55 24572 57504
56 24167 55640
57 23347 55426
58 23662 55443
59 24450 55878
60 23191 55456
61 24120 55625
62 24400 55834
63 24120 55625
64 23427 55449
65 23964 55539
66 24154 55671
67 24472 57563
68 23214 55482
69 23843 55519
70 24679 56337
71 24271 55768
72 24197 55729
73 24092 55671
74 24725 56742
75 24129 55727
76 23238 55529
77 23043 55573
78 24322 55881
79 23133 55557
80 24110 55726
81 24334 55915
82 24179 55785
83 23689 55559
84 23541 55545
85 23714 55581
86 23286 55576
87 24189 55824
88 23826 55645
89 24606 57042
90 24556 56324
91 23891 55671
92 24172 55845
93 24449 56151
94 23532 55595
95 24179 55832
96 23277 55606
97 24268 55922
98 23702 55621
99 24534 56287
100 23407 55599
101 23041 55675
102 23511 55610
103 23857 55689
104 23088 55688
105 23088 55688
106 24255 55974
107 23495 55640
108 23563 55667
109 23841 55718
110 23841 55718
111 24335 56104
112 23353 55666
113 24363 56159
114 23628 55674
115 24347 56131
116 24248 56001
117 23697 55688
118 23374 55671
119 24236 55998
120 24267 56042
121 24267 56042
122 24127 55913
123 24095 55906
124 24251 56051
125 23533 55693
126 23962 57708
127 23190 55723
128 23979 55846
129 24480 57029
130 24141 55994
131 24077 55957
132 24269 56175
133 23571 55762
134 24233 56129
135 24233 56129
136 24249 56168
137 23424 55771
138 23166 55811
139 24398 57052
140 24430 56829
141 23507 55795
142 23629 55809
143 23483 55802
144 24229 56252
145 23600 55834
146 24203 56212
147 24229 56252
148 24040 56043
149 23754 55878
150 24163 56158
151 24338 57076
152 23963 55999
153 24130 56129
154 24169 56220
155 24123 56167
156 24169 56220
157 23329 55896
158 24138 56215
159 24180 57250
160 23520 55892
161 23392 55909
162 23392 55909
163 24034 56139
164 24079 57325
165 24067 56193
166 24029 56163
167 23788 56004
168 24028 56194
169 24014 56185
170 23780 56048
171 24073 56284
172 24146 57030
173 24142 56528
174 23749 56115
175 23339 56065
176 23519 57459
177 23163 56220
178 23510 57370
179 23038 57183
180 24014 56652
181 22918 56528
182 23882 56399
183 23923 57063
184 23118 57194
185 23240 57257
186 23685 57245
187 23828 57117
188 23793 56432
189 23793 56432
190 23259 56332
191 23845 56996
192 23296 56342
193 23101 57028
194 23681 57036
195 23622 56473
196 23148 56902
197 23746 56822
198 23303 57012
199 23452 57003
200 23428 56928
201 23609 56729
DEMAND_SECTION
1 0 0
2 80 0
3 90 0
4 60 0
5 30 0
6 10 0
7 80 0
8 70 0
9 80 0
10 80 0
11 80 0
12 40 0
13 50 0
14 70 0
15 90 0
16 90 0
17 90 0
18 40 0
19 50 0
20 50 0
21 40 0
22 20 0
23 80 0
24 40 0
25 70 0
26 50 0
27 10 0
28 50 0
29 50 0
30 10 0
31 20 0
32 60 0
33 90 0
34 20 0
35 20 0
36 80 0
37 20 0
38 50 0
39 50 0
40 10 0
41 70 0
42 60 0
43 90 0
44 10 0
45 70 0
46 20 0
47 30 0
48 50 0
49 30 0
50 70 0
51 60 0
52 10 0
53 90 0
54 80 0
55 70 0
56 70 0
57 30 0
58 20 0
59 90 0
60 60 0
61 70 0
62 60 0
63 20 0
64 10 0
65 10 0
66 10 0
67 20 0
68 20 0
69 80 0
70 20 0
71 80 0
72 30 0
73 10 0
74 40 0
75 60 0
76 70 0
77 10 0
78 10 0
79 80 0
80 50 0
81 60 0
82 20 0
83 90 0
84 70 0
85 70 0
86 10 0
87 60 0
88 70 0
89 60 0
90 70 0
91 20 0
92 40 0
93 50 0
94 40 0
95 10 0
96 50 0
97 90 0
98 60 0
99 50 0
100 30 0
101 60 0
102 20 0
103 90 0
104 20 0
105 50 0
106 50 0
107 50 0
108 90 0
109 30 0
110 10 0
111 60 0
112 40 0
113 70 0
114 90 0
115 60 0
116 70 0
117 80 0
118 30 0
119 40 0
120 40 0
121 10 0
122 70 0
123 30 0
124 90 0
125 10 0
126 30 0
127 30 0
128 70 0
129 40 0
130 40 0
131 40 0
132 60 0
133 20 0
134 70 0
135 30 0
136 40 0
137 10 0
138 40 0
139 40 0
140 10 0
141 40 0
142 10 0
143 50 0
144 20 0
145 90 0
146 70 0
147 80 0
148 40 0
149 10 0
150 20 0
151 70 0
152 80 0
153 40 0
154 80 0
155 10 0
156 20 0
157 90 0
158 80 0
159 80 0
160 50 0
161 70 0
162 60 0
163 40 0
164 60 0
165 60 0
166 70 0
167 30 0
168 10 0
169 70 0
170 90 0
171 90 0
172 20 0
173 10 0
174 30 0
175 30 0
176 10 0
177 50 0
178 10 0
179 90 0
180 30 0
181 70 0
182 90 0
183 20 0
184 20 0
185 60 0
186 10 0
187 60 0
188 70 0
189 50 0
190 10 0
191 20 0
192 30 0
193 30 0
194 50 0
195 50 0
196 20 0
197 70 0
198 70 0
199 70 0
200 60 0
201 60 0
PICKUP_SECTION
1 0 0
2 20 0
3 80 0
4 70 0
5 40 0
6 30 0
7 40 0
8 30 0
9 40 0
10 60 0
11 60 0
12 80 0
13 30 0
14 50 0
15 90 0
16 80 0
17 90 0
18 90 0
19 10 0
20 40 0
21 70 0
22 60 0
23 70 0
24 10 0
25 70 0
26 30 0
27 50 0
28 60 0
29 90 0
30 10 0
31 70 0
32 10 0
33 60 0
34 60 0
35 10 0
36 40 0
37 40 0
38 70 0
39 90 0
40 60 0
41 30 0
42 90 0
43 30 0
44 80 0
45 40 0
46 70 0
47 50 0
48 40 0
49 90 0
50 30 0
51 80 0
52 20 0
53 90 0
54 60 0
55 30 0
56 20 0
57 50 0
58 20 0
59 60 0
60 10 0
61 10 0
62 70 0
63 80 0
64 90 0
65 20 0
66 70 0
67 80 0
68 60 0
69 30 0
70 30 0
71 30 0
72 10 0
73 70 0
74 10 0
75 90 0
76 20 0
77 10 0
78 70 0
79 10 0
80 40 0
81 40 0
82 70 0
83 50 0
84 60 0
85 40 0
86 10 0
87 60 0
88 60 0
89 70 0
90 60 0
91 10 0
92 80 0
93 40 0
94 20 0
95 10 0
96 80 0
97 60 0
98 30 0
99 60 0
100 60 0
101 10 0
102 10 0
103 80 0
104 50 0
105 20 0
106 60 0
107 60 0
108 70 0
109 10 0
110 40 0
111 90 0
112 80 0
113 60 0
114 60 0
115 60 0
116 90 0
117 20 0
118 80 0
119 20 0
120 10 0
121 40 0
122 10 0
123 90 0
124 80 0
125 40 0
126 90 0
127 80 0
128 80 0
129 80 0
130 50 0
131 40 0
132 50 0
133 10 0
134 30 0
135 90 0
136 10 0
137 70 0
138 60 0
139 40 0
140 70 0
141 60 0
142 60 0
143 40 0
144 20 0
145 50 0
146 40 0
147 20 0
148 70 0
149 70 0
150 70 0
151 50 0
152 50 0
153 40 0
154 70 0
155 30 0
156 20 0
157 50 0
158 20 0
159 40 0
160 30 0
161 10 0
162 80 0
163 90 0
164 90 0
165 50 0
166 20 0
167 40 0
168 40 0
169 30 0
170 30 0
171 20 0
172 40 0
173 50 0
174 40 0
175 20 0
176 70 0
177 30 0
178 20 0
179 10 0
180 30 0
181 80 0
182 20 0
183 70 0
184 90 0
185 70 0
186 70 0
187 50 0
188 50 0
189 80 0
190 60 0
191 60 0
192 40 0
193 10 0
194 80 0
195 10 0
196 90 0
197 50 0
198 40 0
199 20 0
200 20 0
201 70 0
TIME_WINDOW_SECTION
2  7:00 18:00
3  7:00 18:00
4  7:00 18:00
5  7:00 18:00
6  7:00 12:30
7  7:00 18:00
8  8:15 15:15
9  7:00 18:00
10  7:00 11:45
11  7:15 14:45
12  7:00 18:00
13  7:00 18:00
14  7:30 13:30
15  7:00 14:00
16  7:00 18:00
17  7:00 18:00
18  7:00 18:00
19  9:00 15:15
20  9:00 14:45
21  7:00 18:00
22  7:00 18:00
23 10:00 15:30
24  7:00 18:00
25  7:00 18:00
26  9:15 15:45
27  7:00 18:00
28  7:00 18:00
29  7:00 18:00
30  9:30 15:00
31  7:00 18:00
32  7:00 18:00
33  8:15 14:45
34  8:30 12:45
35  7:00 18:00
36 10:15 15:15
37  7:00 18:00
38  7:00 18:00
39  7:00 18:00
40 10:00 14:15
41  9:00 14:15
42  7:00 18:00
43  7:00 18:00
44  9:30 14:30
45  7:00 18:00
46  7:00 18:00
47  8:45 14:00
48  7:00 18:00
49  8:30 14:00
50  7:00 18:00
51  7:00 18:00
52 10:30 14:45
53  9:45 15:15
54  9:15 14:45
55  7:00 18:00
56  8:15 15:00
57  7:30 12:45
58  7:00 18:00
59  7:00 18:00
60  8:15 13:45
61  7:00 18:00
62  7:00 18:00
63  7:00 18:00
64  7:00 15:00
65  7:00 18:00
66  7:00 18:00
67  8:45 14:45
68  7:00 18:00
69  8:45 15:15
70  7:00 11:15
71  7:00 18:00
72  9:30 14:45
73  9:00 14:45
74  7:00 18:00
75  7:00 18:00
76 10:15 15:45
77  9:00 14:30
78  9:00 13:45
79  7:00 18:00
80  9:15 14:15
81  7:00 18:00
82  7:45 12:45
83  7:00 18:00
84  7:00 14:30
85  8:00 12:15
86  7:00 11:15
87  7:00 18:00
88 10:00 15:30
89  8:00 14:15
90  7:00 18:00
91 11:45 16:00
92  8:00 15:00
93  7:15 15:00
94  7:00 18:00
95  7:00 18:00
96  7:15 14:15
97  9:45 15:45
98  7:00 18:00
99  7:00 18:00
100 10:15 15:00
101  7:00 18:00
102  7:15 13:30
103  7:00 18:00
104 10:30 15:30
105  7:00 18:00
106  7:15 14:45
107  7:00 18:00
108  7:00 14:45
109  9:00 14:45
110  7:00 18:00
111  7:00 18:00
112  7:00 15:00
113  8:45 13:30
114  7:00 18:00
115  8:15 16:00
116  7:00 18:00
117  7:00 18:00
118  7:00 18:00
119  8:00 14:45
120  9:00 14:30
121  7:00 18:00
122  7:00 18:00
123  7:00 18:00
124  7:00 18:00
125  7:00 18:00
126  7:30 14:45
127  7:00 18:00
128  7:00 18:00
129  7:00 18:00
130  9:00 16:00
131  7:00 15:00
132  7:15 15:00
133  9:45 16:15
134  7:00 18:00
135  7:00 18:00
136  8:30 15:15
137  7:00 18:00
138  9:00 16:00
139  7:15 15:00
140  7:00 13:45
141  7:00 18:00
142  7:00 18:00
143  7:00 18:00
144  7:45 15:30
145  7:00 18:00
146  8:15 16:00
147  7:00 18:00
148  7:00 18:00
149  7:00 18:00
150  7:00 18:00
151  7:00 12:45
152  7:00 18:00
153  7:30 14:30
154  7:15 14:15
155  7:00 18:00
156  8:00 15:00
157  7:00 18:00
158  7:00 18:00
159  7:00 18:00
160  7:00 18:00
161  7:00 18:00
162  7:00 18:00
163  7:00 14:15
164  7:00 18:00
165  7:00 18:00
166  7:00 18:00
167  7:30 14:45
168  7:00 18:00
169  7:15 14:30
170  7:30 13:45
171  7:00 18:00
172  8:45 16:15
173 11:30 16:00
174  7:45 12:30
175  7:00 18:00
176 10:45 16:00
177  7:15 12:15
178  9:45 16:30
179  9:00 14:45
180  7:00 18:00
181  7:00 18:00
182  8:30 14:45
183  7:00 18:00
184  7:00 18:00
185  7:00 18:00
186  7:00 18:00
187  7:00 18:00
188 10:45 15:45
189  7:45 15:45
190  7:45 15:15
191  7:00 18:00
192 12:15 16:45
193 12:45 17:00
194  7:45 14:30
195  7:00 18:00
196  7:30 13:30
197  9:15 16:00
198  7:00 18:00
199  8:15 16:15
200  7:00 18:00
201  9:15 17:00
STANDTIME_SECTION
2 10
3 10
4 10
5 10
6 10
7 10
8 10
9 10
10 10
11 10
12 10
13 10
14 10
15 10
16 10
17 10
18 10
19 10
20 10
21 10
22 10
23 10
24 10
25 10
26 10
27 10
28 10
29 10
30 10
31 10
32 10
33 10
34 10
35 10
36 10
37 10
38 10
39 10
40 10
41 10
42 10
43 10
44 10
45 10
46 10
47 10
48 10
49 10
50 10
51 10
52 10
53 10
54 10
55 10
56 10
57 10
58 10
59 10
60 10
61 10
62 10
63 10
64 10
65 10
66 10
67 10
68 10
69 10
70 10
71 10
72 10
73 10
74 10
75 10
76 10
77 10
78 10
79 10
80 10
81 10
82 10
83 10
84 10
85 10
86 10
87 10
88 10
89 10
90 10
91 10
92 10
93 10
94 10
95 10
96 10
97 10
98 10
99 10
100 10
101 10
102 10
103 10
104 10
105 10
106 10
107 10
108 10
109 10
110 10
111 10
112 10
113 10
114 10
115 10
116 10
117 10
118 10
119 10
120 10
121 10
122 10
123 10
124 10
125 10
126 10
127 10
128 10
129 10
130 10
131 10
132 10
133 10
134 10
135 10
136 10
137 10
138 10
139 10
140 10
141 10
142 10
143 10
144 10
145 10
146 10
147 10
148 10
149 10
150 10
151 10
152 10
153 10
154 10
155 10
156 10
157 10
158 10
159 10
160 10
161 10
162 10
163 10
164 10
165 10
166 10
167 10
168 10
169 10
170 10
171 10
172 10
173 10
174 10
175 10
176 10
177 10
178 10
179 10
180 10
181 10
182 10
183 10
184 10
185 10
186 10
187 10
188 10
189 10
190 10
191 10
192 10
193 10
194 10
195 10
196 10
197 10
198 10
199 10
200 10
201 10
DEPOT_SECTION
1
-1
EOF
